NAME: random-75-22734
TYPE: TSP
COMMENT: size=75 seed=22734
DIMENSION: 152
EDGE_WEIGHT_TYPE: EUC_2D
NODE_COORD_SECTION
+0 338 236
-0 338 236
+1 803 529
-1 653 301
+2 861 303
-2 414 334
+3 651 933
-3 353 28
+4 739 861
-4 308 415
+5 725 435
-5 723 894
+6 348 409
-6 436 750
+7 265 710
-7 533 715
+8 806 865
-8 642 708
+9 432 554
-9 76 279
+10 226 209
-10 546 102
+11 273 986
-11 79 330
+12 643 151
-12 759 882
+13 637 793
-13 263 765
+14 196 535
-14 177 530
+15 746 401
-15 127 572
+16 724 292
-16 768 358
+17 90 450
-17 931 803
+18 637 764
-18 89 450
+19 618 138
-19 86 723
+20 517 46
-20 766 537
+21 992 266
-21 231 859
+22 547 332
-22 245 221
+23 257 192
-23 582 340
+24 448 248
-24 558 75
+25 629 259
-25 51 814
+26 940 360
-26 991 501
+27 746 732
-27 813 437
+28 101 700
-28 455 858
+29 324 974
-29 56 53
+30 844 264
-30 0 426
+31 613 873
-31 608 282
+32 940 62
-32 320 429
+33 389 985
-33 141 956
+34 563 570
-34 711 53
+35 555 114
-35 671 742
+36 106 936
-36 832 612
+37 933 469
-37 245 629
+38 75 119
-38 957 347
+39 766 5
-39 866 205
+40 84 747
-40 792 40
+41 377 790
-41 815 980
+42 264 740
-42 530 498
+43 977 203
-43 591 725
+44 509 769
-44 94 648
+45 528 824
-45 318 166
+46 640 819
-46 561 629
+47 440 490
-47 385 718
+48 587 468
-48 349 280
+49 512 626
-49 797 612
+50 135 469
-50 85 705
+51 184 891
-51 995 557
+52 949 834
-52 85 729
+53 609 410
-53 541 831
+54 731 604
-54 860 952
+55 369 167
-55 479 730
+56 932 821
-56 703 219
+57 312 748
-57 500 289
+58 194 148
-58 184 802
+59 85 77
-59 143 546
+60 240 558
-60 254 718
+61 95 692
-61 873 948
+62 315 190
-62 85 999
+63 165 653
-63 202 254
+64 797 817
-64 852 571
+65 494 17
-65 203 994
+66 790 818
-66 569 302
+67 184 197
-67 716 323
+68 86 264
-68 431 519
+69 965 196
-69 912 242
+70 761 129
-70 716 254
+71 380 809
-71 38 713
+72 491 479
-72 749 191
+73 929 160
-73 528 968
+74 146 785
-74 389 188
+75 186 717
-75 80 844
PRECEDENCE_SECTION
+0 -0
+1 -1
+2 -2
+3 -3
+4 -4
+5 -5
+6 -6
+7 -7
+8 -8
+9 -9
+10 -10
+11 -11
+12 -12
+13 -13
+14 -14
+15 -15
+16 -16
+17 -17
+18 -18
+19 -19
+20 -20
+21 -21
+22 -22
+23 -23
+24 -24
+25 -25
+26 -26
+27 -27
+28 -28
+29 -29
+30 -30
+31 -31
+32 -32
+33 -33
+34 -34
+35 -35
+36 -36
+37 -37
+38 -38
+39 -39
+40 -40
+41 -41
+42 -42
+43 -43
+44 -44
+45 -45
+46 -46
+47 -47
+48 -48
+49 -49
+50 -50
+51 -51
+52 -52
+53 -53
+54 -54
+55 -55
+56 -56
+57 -57
+58 -58
+59 -59
+60 -60
+61 -61
+62 -62
+63 -63
+64 -64
+65 -65
+66 -66
+67 -67
+68 -68
+69 -69
+70 -70
+71 -71
+72 -72
+73 -73
+74 -74
+75 -75
EOF
